140
0 16 49 96 72 58 38 85 105 123 
42 87 67 29 13 6 104 76 69 68 
41 73 93 1 2 115 24 19 108 23 
3 44 57 66 9 121 7 60 98 65 
103 126 35 4 135 55 47 26 132 20 
79 43 71 37 84 133 32 36 75 138 
99 88 106 134 52 56 92 125 34 64 
15 62 18 89 83 40 17 53 46 130 
25 10 131 21 12 113 110 86 14 22 
112 77 30 137 50 90 80 117 120 63 
94 97 136 48 102 82 74 91 54 81 
95 119 78 109 127 39 124 27 5 118 
101 61 107 8 129 100 122 45 116 33 
59 114 70 11 31 128 111 28 51 139 
